
************************************************************
 TOWR - Trajectory Optimization for Walking Robots (v1.4)
                © Alexander W. Winkler
           https://github.com/ethz-adrl/towr
************************************************************

0.504
4.561412003533202e-59
0.2
0
0
0.24
0
0
0
t
-e1
0.21
value fo cmd_return -> t -e1 0.21
next line
0.21
0.19
0.0
0.21
-0.19
0.0
-0.21
0.19
0.0
-0.21
-0.19
0.0
0.01
ee start pos x -> 0.21
ee start pos y -> 0.19
ee start pos z -> 0
ee start pos x -> 0.21
ee start pos y -> -0.19
ee start pos z -> 0
ee start pos x -> -0.21
ee start pos y -> 0.19
ee start pos z -> 0
ee start pos x -> -0.21
ee start pos y -> -0.19
ee start pos z -> 0
start pos x -> 0
start pos y -> 0
start pos z -> 0.24
goal pos x -> 0.504
goal pos y -> 4.56141e-59
goal pos z -> 0.2
ee start pos x -> 0.21
ee start pos y -> 0.19
ee start pos z -> 0
ee start pos x -> 0.21
ee start pos y -> -0.19
ee start pos z -> 0
ee start pos x -> -0.21
ee start pos y -> 0.19
ee start pos z -> 0
ee start pos x -> -0.21
ee start pos y -> -0.19
ee start pos z -> 0
SOLVER RUN TIME : 15

******************************************************************************
This program contains Ipopt, a library for large-scale nonlinear optimization.
 Ipopt is released as open source code under the Eclipse Public License (EPL).
         For more information visit http://projects.coin-or.org/Ipopt
******************************************************************************

This is Ipopt version 3.11.9, running with linear solver mumps.
NOTE: Other linear solvers might be more efficient (see Ipopt documentation).

Number of nonzeros in equality constraint Jacobian...:    11557
Number of nonzeros in inequality constraint Jacobian.:    20605
Number of nonzeros in Lagrangian Hessian.............:        0

Total number of variables............................:     1005
                     variables with only lower bounds:        0
                variables with lower and upper bounds:        0
                     variables with only upper bounds:        0
Total number of equality constraints.................:      706
Total number of inequality constraints...............:     1024
        inequality constraints with only lower bounds:      112
   inequality constraints with lower and upper bounds:      816
        inequality constraints with only upper bounds:       96

iter    objective    inf_pr   inf_du lg(mu)  ||d||  lg(rg) alpha_du alpha_pr  ls
   0  0.0000000e+00 9.71e+00 1.00e+00   0.0 0.00e+00    -  0.00e+00 0.00e+00   0
   1  0.0000000e+00 7.05e+00 1.00e+01  -0.5 4.68e+00    -  2.26e-01 2.74e-01f  1
   2  0.0000000e+00 6.64e+00 1.65e+01  -4.7 3.58e+00    -  4.63e-01 5.81e-02h  1
   3  0.0000000e+00 3.89e+00 1.87e+01  -1.1 3.66e+00    -  6.34e-01 4.14e-01h  1
   4  0.0000000e+00 7.36e-01 2.44e+01  -1.1 2.69e+00    -  9.06e-01 8.11e-01h  1
   5  0.0000000e+00 8.72e-03 7.71e+00  -6.3 3.49e-01    -  8.22e-01 1.00e+00h  1
   6  0.0000000e+00 1.72e-03 6.82e+00  -3.0 1.36e-02    -  6.55e-01 1.00e+00h  1
   7  0.0000000e+00 7.01e-04 6.33e-02  -3.2 9.47e-03    -  9.91e-01 1.00e+00h  1
   8  0.0000000e+00 5.12e-04 3.18e-03  -5.2 8.52e-03    -  9.84e-01 1.00e+00h  1
   9  0.0000000e+00 7.23e-04 9.19e-05  -6.6 7.39e-03    -  9.99e-01 1.00e+00h  1
iter    objective    inf_pr   inf_du lg(mu)  ||d||  lg(rg) alpha_du alpha_pr  ls
  10  0.0000000e+00 6.85e-02 2.64e-05  -6.6 1.76e+00    -  6.51e-01 1.00e+00h  1
  11  0.0000000e+00 4.42e-02 8.52e-06  -6.6 2.41e+00    -  7.14e-01 1.00e+00h  1
  12  0.0000000e+00 1.78e-02 2.49e-06  -6.6 5.02e+00    -  1.00e+00 1.00e+00h  1
  13  0.0000000e+00 4.45e-03 2.52e-06  -6.6 2.98e+00    -  1.00e+00 1.00e+00h  1
  14  0.0000000e+00 2.82e-03 2.55e-06  -6.6 2.19e+00    -  1.00e+00 1.00e+00h  1
  15  0.0000000e+00 7.67e-04 2.81e-03  -6.6 2.82e-03    -  1.00e+00 1.00e+00h  1
  16  0.0000000e+00 3.14e-04 3.50e-06  -6.6 8.66e-04    -  1.00e+00 1.00e+00h  1
  17  0.0000000e+00 5.76e-05 7.35e-07  -8.7 3.32e-04    -  1.00e+00 1.00e+00h  1

Number of Iterations....: 17

                                   (scaled)                 (unscaled)
Objective...............:   0.0000000000000000e+00    0.0000000000000000e+00
Dual infeasibility......:   7.3470217848003569e-07    7.3470217848003569e-07
Constraint violation....:   5.7550801882189084e-05    5.7550801882189084e-05
Complementarity.........:   2.7699453682462623e-09    2.7699453682462623e-09
Overall NLP error.......:   5.7550801882189084e-05    5.7550801882189084e-05


Number of objective function evaluations             = 18
Number of objective gradient evaluations             = 18
Number of equality constraint evaluations            = 18
Number of inequality constraint evaluations          = 18
Number of equality constraint Jacobian evaluations   = 18
Number of inequality constraint Jacobian evaluations = 18
Number of Lagrangian Hessian evaluations             = 0
Total CPU secs in IPOPT (w/o function evaluations)   =      0.485
Total CPU secs in NLP function evaluations           =      0.995

EXIT: Optimal Solution Found.
status -> 0

************************************************************
    IFOPT - Interface to Nonlinear Optimizers (v2.0)
                © Alexander W. Winkler
           https://github.com/ethz-adrl/ifopt
************************************************************
Legend:
c - number of variables, constraints or cost terms
i - indices of this set in overall problem
v - number of [violated variable- or constraint-bounds] or [cost term value]

                                   c             i             v 
variable-sets:
   base-lin                       306        0....305[0m           0[0m
   base-ang                       306      306....611[0m           0[0m
   ee-motion_0                     35      612....646[0m           0[0m
   ee-motion_1                     35      647....681[0m           0[0m
   ee-motion_2                     35      682....716[0m           0[0m
   ee-motion_3                     35      717....751[0m           0[0m
   ee-force_0                      72      752....823[0m           0[0m
   ee-force_1                      72      824....895[0m           0[0m
   ee-force_2                      72      896....967[0m           0[0m
   ee-force_3                      72      968...1039[0m           0[0m

constraint-sets:
   terrain-ee-motion_0             13        0.....12[0m           0[0m
   terrain-ee-motion_1             13       13.....25[0m           0[0m
   terrain-ee-motion_2             13       26.....38[0m           0[0m
   terrain-ee-motion_3             13       39.....51[0m           0[0m
   dynamic                        312       52....363[0m           0[0m
   splineacc-base-lin             147      364....510[0m           0[0m
   splineacc-base-ang             147      511....657[0m           0[0m
   rangeofmotion-0                192      658....849[0m           0[0m
   rangeofmotion-1                192      850...1041[0m           0[0m
   rangeofmotion-2                192     1042...1233[0m           0[0m
   rangeofmotion-3                192     1234...1425[0m           0[0m
   force-ee-force_0                60     1426...1485[0m           0[0m
   force-ee-force_1                60     1486...1545[0m           0[0m
   force-ee-force_2                60     1546...1605[0m           0[0m
   force-ee-force_3                60     1606...1665[0m           0[0m
   swing-ee-motion_0               16     1666...1681[0m           0[0m
   swing-ee-motion_1               16     1682...1697[0m           0[0m
   swing-ee-motion_2               16     1698...1713[0m           0[0m
   swing-ee-motion_3               16     1714...1729[0m           0[0m

cost-terms:


************************************************************
 TOWR - Trajectory Optimization for Walking Robots (v1.4)
                © Alexander W. Winkler
           https://github.com/ethz-adrl/towr
************************************************************

0.8820000000000002
0.0
0.29504682927502024
0.286768
-0.00242376
0.260028
-0.0116569
-0.12661
0.0211552
t
-e1
0.521571
value fo cmd_return -> t -e1 0.521571
next line
0.521571
0.166906
0.0481966
0.56993
-0.175619
0.0494776
0.0743975
0.183188
0
0.118487
-0.153063
0
3.75
s_vel
0.132868
0.01
-t
3.75
ee start pos x -> 0.521571
ee start pos y -> 0.166906
ee start pos z -> 0.0481966
ee start pos x -> 0.56993
ee start pos y -> -0.175619
ee start pos z -> 0.0494776
ee start pos x -> 0.0743975
ee start pos y -> 0.183188
ee start pos z -> 0
ee start pos x -> 0.118487
ee start pos y -> -0.153063
ee start pos z -> 0
start pos x -> 0.286768
start pos y -> -0.00242376
start pos z -> 0.260028
goal pos x -> 0.882
goal pos y -> 0
goal pos z -> 0.295047
ee start pos x -> 0.521571
ee start pos y -> 0.166906
ee start pos z -> 0.0481966
ee start pos x -> 0.56993
ee start pos y -> -0.175619
ee start pos z -> 0.0494776
ee start pos x -> 0.0743975
ee start pos y -> 0.183188
ee start pos z -> 0
ee start pos x -> 0.118487
ee start pos y -> -0.153063
ee start pos z -> 0
SOLVER RUN TIME : 15

******************************************************************************
This program contains Ipopt, a library for large-scale nonlinear optimization.
 Ipopt is released as open source code under the Eclipse Public License (EPL).
         For more information visit http://projects.coin-or.org/Ipopt
******************************************************************************

This is Ipopt version 3.11.9, running with linear solver mumps.
NOTE: Other linear solvers might be more efficient (see Ipopt documentation).

Number of nonzeros in equality constraint Jacobian...:    11557
Number of nonzeros in inequality constraint Jacobian.:    20605
Number of nonzeros in Lagrangian Hessian.............:        0

Total number of variables............................:     1005
                     variables with only lower bounds:        0
                variables with lower and upper bounds:        0
                     variables with only upper bounds:        0
Total number of equality constraints.................:      706
Total number of inequality constraints...............:     1024
        inequality constraints with only lower bounds:      112
   inequality constraints with lower and upper bounds:      816
        inequality constraints with only upper bounds:       96

iter    objective    inf_pr   inf_du lg(mu)  ||d||  lg(rg) alpha_du alpha_pr  ls
   0  0.0000000e+00 9.71e+00 1.00e+00   0.0 0.00e+00    -  0.00e+00 0.00e+00   0
   1  0.0000000e+00 8.10e+00 1.46e+01  -0.2 4.60e+00    -  3.85e-01 1.66e-01f  1
   2  0.0000000e+00 5.79e+00 2.83e+01   0.4 4.21e+01    -  7.34e-01 2.85e-01f  1
   3  0.0000000e+00 4.83e-01 3.89e+01   0.4 3.35e+01    -  1.00e+00 1.00e+00f  1
   4  0.0000000e+00 1.65e-02 7.35e+00  -0.0 9.42e+00    -  9.78e-01 1.00e+00f  1
   5  0.0000000e+00 3.89e-03 6.06e+00  -1.7 1.14e-01    -  8.82e-01 1.00e+00h  1
   6  0.0000000e+00 1.06e-03 7.71e-02  -2.6 5.10e-02    -  1.00e+00 1.00e+00h  1
   7  0.0000000e+00 9.42e-04 1.12e-03  -4.5 4.23e-02    -  9.91e-01 1.00e+00h  1
   8  0.0000000e+00 9.42e-04 6.08e-06 -10.2 2.45e-02    -  9.98e-01 1.00e+00h  1
   9  0.0000000e+00 9.42e-04 7.53e-09 -11.0 5.33e-03    -  9.99e-01 1.00e+00h  1
iter    objective    inf_pr   inf_du lg(mu)  ||d||  lg(rg) alpha_du alpha_pr  ls
  10  0.0000000e+00 9.42e-04 4.76e-09 -11.0 3.81e-06  -4.0 1.00e+00 1.00e+00h  1
  11  0.0000000e+00 9.42e-04 9.53e-10 -11.0 1.64e-06  -4.5 1.00e+00 1.00e+00h  1
  12  0.0000000e+00 9.42e-04 8.03e-07 -11.0 8.03e-07    -  1.00e+00 1.00e+00h  1
  13  0.0000000e+00 9.42e-04 5.02e-11 -11.0 4.47e-06  -5.0 1.00e+00 1.00e+00H  1
  14r 0.0000000e+00 9.42e-04 9.99e+02  -3.0 0.00e+00    -  0.00e+00 4.77e-07R 22
  15r 0.0000000e+00 9.42e-04 1.04e+01  -4.9 1.96e-04    -  1.00e+00 9.90e-01f  1
  16r 0.0000000e+00 9.42e-04 2.49e+01  -6.6 1.92e-04    -  1.00e+00 8.55e-01f  1
  17r 0.0000000e+00 9.42e-04 1.51e-06  -6.8 1.98e-03    -  1.00e+00 1.00e+00f  1
  18r 0.0000000e+00 9.42e-04 3.12e-02  -9.0 2.31e-03    -  9.99e-01 1.00e+00h  1
  19r 0.0000000e+00 9.42e-04 2.27e-08  -9.0 7.25e-04    -  1.00e+00 1.00e+00h  1
iter    objective    inf_pr   inf_du lg(mu)  ||d||  lg(rg) alpha_du alpha_pr  ls
  20r 0.0000000e+00 9.42e-04 1.19e-08  -9.0 3.25e-04    -  1.00e+00 1.00e+00h  1
Restoration phase converged to a feasible point that is
unacceptable to the filter for the original problem.
Restoration phase in the restoration phase failed.

Number of Iterations....: 20

                                   (scaled)                 (unscaled)
Objective...............:   0.0000000000000000e+00    0.0000000000000000e+00
Dual infeasibility......:   1.3608793249135857e-08    1.3608793249135857e-08
Constraint violation....:   9.4205056929910075e-04    9.4205056929910075e-04
Complementarity.........:   1.0000000000001390e-09    1.0000000000001390e-09
Overall NLP error.......:   9.4205056929910075e-04    9.4205056929910075e-04


Number of objective function evaluations             = 48
Number of objective gradient evaluations             = 16
Number of equality constraint evaluations            = 48
Number of inequality constraint evaluations          = 48
Number of equality constraint Jacobian evaluations   = 23
Number of inequality constraint Jacobian evaluations = 23
Number of Lagrangian Hessian evaluations             = 0
Total CPU secs in IPOPT (w/o function evaluations)   =      0.668
Total CPU secs in NLP function evaluations           =      1.301

EXIT: Restoration Failed!
status -> -2

************************************************************
    IFOPT - Interface to Nonlinear Optimizers (v2.0)
                © Alexander W. Winkler
           https://github.com/ethz-adrl/ifopt
************************************************************
Legend:
c - number of variables, constraints or cost terms
i - indices of this set in overall problem
v - number of [violated variable- or constraint-bounds] or [cost term value]

                                   c             i             v 
variable-sets:
   base-lin                       306        0....305[0m           0[0m
   base-ang                       306      306....611[0m           0[0m
   ee-motion_0                     35      612....646[0m           0[0m
   ee-motion_1                     35      647....681[0m           0[0m
   ee-motion_2                     35      682....716[0m           0[0m
   ee-motion_3                     35      717....751[0m           0[0m
   ee-force_0                      72      752....823[0m           0[0m
   ee-force_1                      72      824....895[0m           0[0m
   ee-force_2                      72      896....967[0m           0[0m
   ee-force_3                      72      968...1039[0m           0[0m

constraint-sets:
   terrain-ee-motion_0             13        0.....12[0m           0[0m
ERROR: Ipopt failed to find a solution. Return Code: -2
   terrain-ee-motion_1             13       13.....25[0m           0[0m
   terrain-ee-motion_2             13       26.....38[0m           0[0m
   terrain-ee-motion_3             13       39.....51[0m           0[0m
   dynamic                        312       52....363[0m           0[0m
   splineacc-base-lin             147      364....510[0m           0[0m
   splineacc-base-ang             147      511....657[0m           0[0m
   rangeofmotion-0                192      658....849[0m           0[0m
   rangeofmotion-1                192      850...1041[0m           0[0m
   rangeofmotion-2                192     1042...1233[0m           0[0m
   rangeofmotion-3                192     1234...1425[0m           0[0m
   force-ee-force_0                60     1426...1485[0m           0[0m
   force-ee-force_1                60     1486...1545[0m           0[0m
   force-ee-force_2                60     1546...1605[0m           0[0m
   force-ee-force_3                60     1606...1665[0m           0[0m
   swing-ee-motion_0               16     1666...1681[0m           0[0m
   swing-ee-motion_1               16     1682...1697[0m           0[0m
   swing-ee-motion_2               16     1698...1713[0m           0[0m
   swing-ee-motion_3               16     1714...1729[0m           0[0m

cost-terms:

